Set parameter GURO_PAR_SPECIAL
Set parameter TokenServer to value "engaging-license-001"

--------------------------------------------
Warning: your license will expire in 9 days
--------------------------------------------

Set parameter TimeLimit to value 3600
Set parameter IntegralityFocus to value 1
Set parameter IntegralityFocus to value 1
Set parameter TimeLimit to value 3600
Gurobi Optimizer version 9.5.1 build v9.5.1rc2 (linux64)
Thread count: 28 physical cores, 28 logical processors, using up to 28 threads
Optimize a model with 117839 rows, 79661 columns and 1149415 nonzeros
Model fingerprint: 0x32983a38
Variable types: 79632 continuous, 29 integer (29 binary)
Coefficient statistics:
  Matrix range     [5e-01, 1e+04]
  Objective range  [1e+00, 1e+00]
  Bounds range     [0e+00, 0e+00]
  RHS range        [1e+00, 5e+01]
Found heuristic solution: objective 859385.00000
Found heuristic solution: objective 859385.00000
Presolve removed 81277 rows and 43088 columns
Presolve time: 2.87s
Presolved: 36562 rows, 36573 columns, 584693 nonzeros
Variable types: 36568 continuous, 5 integer (5 binary)

Deterministic concurrent LP optimizer: primal and dual simplex (primal and dual model)
Showing first log only...

Root relaxation presolved: 36562 rows, 36573 columns, 584693 nonzeros


Root simplex log...

Iteration    Objective       Primal Inf.    Dual Inf.      Time
     129    1.4611036e+08   0.000000e+00   9.626865e+09      5s
Concurrent spin time: 1.34s

Solved with dual simplex (dual model)

Root relaxation: objective 1.413185e+05, 2835 iterations, 2.79 seconds (1.55 work units)

    Nodes    |    Current Node    |     Objective Bounds      |     Work
 Expl Unexpl |  Obj  Depth IntInf | Incumbent    BestBd   Gap | It/Node Time

     0     0 141318.525    0    5 859385.000 141318.525  83.6%     -    6s
     0     0 141318.525    0    5 859385.000 141318.525  83.6%     -    6s
     0     2 141318.525    0    5 859385.000 141318.525  83.6%     -    9s
     1     4 141318.525    1    4 859385.000 141318.525  83.6%   1.0   10s
     7    16 141351.227    3    2 859385.000 141318.525  83.6%  62.6   68s
    15    32 141715.528    4    1 859385.000 141351.227  83.6%  3499  146s
*   31     4               5    141983.86743 141715.528  0.19%  4134  216s

Explored 59 nodes (227574 simplex iterations) in 219.69 seconds (218.79 work units)
Thread count was 28 (of 28 available processors)

Solution count 1: 141984 

Optimal solution found (tolerance 1.00e-04)
Best objective 1.419838674375e+05, best bound 1.419838674298e+05, gap 0.0000%

User-callback calls 146878, time in user-callback 0.14 sec
Set parameter GURO_PAR_SPECIAL
Set parameter TokenServer to value "engaging-license-001"

--------------------------------------------
Warning: your license will expire in 9 days
--------------------------------------------

Set parameter TimeLimit to value 3600
Set parameter IntegralityFocus to value 1
Set parameter IntegralityFocus to value 1
Set parameter TimeLimit to value 3600
Gurobi Optimizer version 9.5.1 build v9.5.1rc2 (linux64)
Thread count: 28 physical cores, 28 logical processors, using up to 28 threads
Optimize a model with 117834 rows, 79661 columns and 1149410 nonzeros
Model fingerprint: 0xcc80ee1a
Variable types: 79632 continuous, 29 integer (29 binary)
Coefficient statistics:
  Matrix range     [5e-01, 1e+04]
  Objective range  [1e+00, 1e+00]
  Bounds range     [0e+00, 0e+00]
  RHS range        [1e+00, 5e+01]
Found heuristic solution: objective 859385.00000
Found heuristic solution: objective 859385.00000
Presolve removed 81272 rows and 43088 columns
Presolve time: 2.08s
Presolved: 36562 rows, 36573 columns, 584693 nonzeros
Variable types: 36568 continuous, 5 integer (5 binary)

Deterministic concurrent LP optimizer: primal and dual simplex (primal and dual model)
Showing first log only...

Root relaxation presolved: 36562 rows, 36573 columns, 584693 nonzeros

Concurrent spin time: 0.19s

Solved with dual simplex (dual model)

Root relaxation: objective 1.413185e+05, 2835 iterations, 2.78 seconds (1.55 work units)

    Nodes    |    Current Node    |     Objective Bounds      |     Work
 Expl Unexpl |  Obj  Depth IntInf | Incumbent    BestBd   Gap | It/Node Time

     0     0 141318.525    0    5 859385.000 141318.525  83.6%     -    5s
     0     0 141318.525    0    5 859385.000 141318.525  83.6%     -    5s
     0     2 141318.525    0    5 859385.000 141318.525  83.6%     -    7s
     1     4 141318.525    1    4 859385.000 141318.525  83.6%   1.0   10s
     7    16 141351.227    3    2 859385.000 141318.525  83.6%  62.6   54s
    15    32 141715.528    4    1 859385.000 141351.227  83.6%  3499  114s
*   31     4               5    141983.86743 141715.528  0.19%  4134  180s

Explored 59 nodes (227574 simplex iterations) in 183.73 seconds (218.80 work units)
Thread count was 28 (of 28 available processors)

Solution count 1: 141984 

Optimal solution found (tolerance 1.00e-04)
Best objective 1.419838674375e+05, best bound 1.419838674298e+05, gap 0.0000%

User-callback calls 102472, time in user-callback 0.12 sec
-------------------------------------------------------------------------------------
features_wh5_pass0_instance401_run401.jld2
Instance 1401 has no congestion
features_wh5_pass0_instance401_run402.jld2
Instance 1402 has no congestion
features_wh5_pass0_instance402_run403.jld2
Instance 1403 has no congestion
features_wh5_pass0_instance402_run404.jld2
Instance 1404 has no congestion
features_wh5_pass0_instance403_run405.jld2
Instance 1405 has no congestion
features_wh5_pass0_instance403_run406.jld2
Instance 1406 has no congestion
features_wh5_pass0_instance404_run407.jld2
Instance 1407 has no congestion
features_wh5_pass0_instance404_run408.jld2
Instance 1408 has no congestion
features_wh5_pass0_instance405_run409.jld2
Instance 1409 has no congestion
features_wh5_pass0_instance405_run410.jld2
Instance 1410 has no congestion
features_wh5_pass0_instance406_run411.jld2
Instance 1411 has no congestion
features_wh5_pass0_instance406_run412.jld2
Instance 1412 has no congestion
features_wh5_pass0_instance407_run413.jld2
Instance 1413 has no congestion
features_wh5_pass0_instance407_run414.jld2
Instance 1414 has no congestion
features_wh5_pass0_instance408_run415.jld2
Instance 1415 has no congestion
features_wh5_pass0_instance408_run416.jld2
Instance 1416 has no congestion
features_wh5_pass0_instance409_run417.jld2
Instance 1417 has no congestion
features_wh5_pass0_instance409_run418.jld2
Instance 1418 has no congestion
features_wh5_pass0_instance410_run419.jld2
Instance 1419 has no congestion
features_wh5_pass0_instance410_run420.jld2
Instance 1420 has no congestion
features_wh5_pass0_instance411_run421.jld2
Instance 1421 has no congestion
features_wh5_pass0_instance411_run422.jld2
Instance 1422 has no congestion
features_wh5_pass0_instance412_run423.jld2
Instance 1423 has no congestion
features_wh5_pass0_instance412_run424.jld2
Instance 1424 has no congestion
features_wh5_pass0_instance413_run425.jld2
Instance 1425 has no congestion
features_wh5_pass0_instance413_run426.jld2
Instance 1426 has no congestion
features_wh5_pass0_instance414_run427.jld2
Instance 1427 has no congestion
features_wh5_pass0_instance414_run428.jld2
Instance 1428 has no congestion
features_wh5_pass0_instance415_run429.jld2
Instance 1429 has no congestion
features_wh5_pass0_instance415_run430.jld2
Instance 1430 has no congestion
features_wh5_pass0_instance416_run431.jld2
Instance 1431 has no congestion
features_wh5_pass0_instance416_run432.jld2
Instance 1432 has no congestion
features_wh5_pass0_instance417_run433.jld2
Instance 1433 has no congestion
features_wh5_pass0_instance417_run434.jld2
Instance 1434 has no congestion
features_wh5_pass0_instance418_run435.jld2
Instance 1435 has no congestion
features_wh5_pass0_instance418_run436.jld2
Instance 1436 has no congestion
features_wh5_pass0_instance419_run437.jld2
Instance 1437 has no congestion
features_wh5_pass0_instance419_run438.jld2
Instance 1438 has no congestion
features_wh5_pass0_instance420_run439.jld2
Instance 1439 has no congestion
features_wh5_pass0_instance420_run440.jld2
Instance 1440 has no congestion
features_wh5_pass0_instance421_run441.jld2
Instance 1441 has no congestion
features_wh5_pass0_instance421_run442.jld2
Instance 1442 has no congestion
features_wh5_pass0_instance422_run443.jld2
Instance 1443 has no congestion
features_wh5_pass0_instance422_run444.jld2
Instance 1444 has no congestion
features_wh5_pass0_instance423_run445.jld2
Instance 1445 has no congestion
features_wh5_pass0_instance423_run446.jld2
Instance 1446 has no congestion
features_wh5_pass0_instance424_run447.jld2
Instance 1447 has no congestion
features_wh5_pass0_instance424_run448.jld2
Instance 1448 has no congestion
features_wh5_pass0_instance425_run449.jld2
Instance 1449 has no congestion
features_wh5_pass0_instance425_run450.jld2
Instance 1450 has no congestion
features_wh5_pass0_instance426_run451.jld2
Instance 1451 has no congestion
features_wh5_pass0_instance426_run452.jld2
Instance 1452 has no congestion
features_wh5_pass0_instance427_run453.jld2
Instance 1453 has no congestion
features_wh5_pass0_instance427_run454.jld2
Instance 1454 has no congestion
features_wh5_pass0_instance428_run455.jld2
Instance 1455 has no congestion
features_wh5_pass0_instance428_run456.jld2
Instance 1456 has no congestion
features_wh5_pass0_instance429_run457.jld2
Instance 1457 has no congestion
features_wh5_pass0_instance429_run458.jld2
Instance 1458 has no congestion
features_wh5_pass0_instance430_run459.jld2
Instance 1459 has no congestion
features_wh5_pass0_instance430_run460.jld2
Instance 1460 has no congestion
features_wh5_pass0_instance431_run461.jld2
Instance 1461 has no congestion
features_wh5_pass0_instance431_run462.jld2
Instance 1462 has no congestion
features_wh5_pass0_instance432_run463.jld2
Instance 1463 has no congestion
features_wh5_pass0_instance432_run464.jld2
Instance 1464 has no congestion
features_wh5_pass0_instance433_run465.jld2
Instance 1465 has no congestion
features_wh5_pass0_instance433_run466.jld2
Instance 1466 has no congestion
features_wh5_pass0_instance434_run467.jld2
Instance 1467 has no congestion
features_wh5_pass0_instance434_run468.jld2
Instance 1468 has no congestion
features_wh5_pass0_instance435_run469.jld2
Instance 1469 has no congestion
features_wh5_pass0_instance435_run470.jld2
Instance 1470 has no congestion
features_wh5_pass0_instance436_run471.jld2
Instance 1471 has no congestion
features_wh5_pass0_instance436_run472.jld2
Instance 1472 has no congestion
features_wh5_pass0_instance437_run473.jld2
Instance 1473 has no congestion
features_wh5_pass0_instance437_run474.jld2
Instance 1474 has no congestion
features_wh5_pass0_instance438_run475.jld2
Instance 1475 has no congestion
features_wh5_pass0_instance438_run476.jld2
Instance 1476 has no congestion
features_wh5_pass0_instance439_run477.jld2
Instance 1477 has no congestion
features_wh5_pass0_instance439_run478.jld2
Instance 1478 has no congestion
features_wh5_pass0_instance440_run479.jld2
Instance 1479 has no congestion
features_wh5_pass0_instance440_run480.jld2
Instance 1480 has no congestion
features_wh5_pass0_instance441_run481.jld2
Instance 1481 has no congestion
features_wh5_pass0_instance441_run482.jld2
Instance 1482 has no congestion
features_wh5_pass0_instance442_run483.jld2
Instance 1483 has no congestion
features_wh5_pass0_instance442_run484.jld2
Instance 1484 has no congestion
features_wh5_pass0_instance443_run486.jld2
Instance 1486 has no congestion
features_wh5_pass0_instance444_run487.jld2
Instance 1487 has no congestion
features_wh5_pass0_instance444_run488.jld2
Instance 1488 has no congestion
features_wh5_pass0_instance445_run489.jld2
Instance 1489 has no congestion
features_wh5_pass0_instance445_run490.jld2
Instance 1490 has no congestion
features_wh5_pass0_instance446_run491.jld2
Instance 1491 has no congestion
features_wh5_pass0_instance446_run492.jld2
Instance 1492 has no congestion
features_wh5_pass0_instance447_run493.jld2
Instance 1493 has no congestion
features_wh5_pass0_instance447_run494.jld2
Instance 1494 has no congestion
features_wh5_pass0_instance448_run495.jld2
Instance 1495 has no congestion
features_wh5_pass0_instance448_run496.jld2
Instance 1496 has no congestion
features_wh5_pass0_instance449_run497.jld2
Instance 1497 has no congestion
features_wh5_pass0_instance449_run498.jld2
Instance 1498 has no congestion
features_wh5_pass0_instance450_run499.jld2
Instance 1499 has no congestion
features_wh5_pass0_instance450_run500.jld2
Instance 1500 has no congestion
features_wh5_pass0_instance451_run501.jld2
Instance 1501 has no congestion
features_wh5_pass0_instance451_run502.jld2
Instance 1502 has no congestion
features_wh5_pass0_instance452_run503.jld2
Instance 1503 has no congestion
features_wh5_pass0_instance452_run504.jld2
Instance 1504 has no congestion
features_wh5_pass0_instance453_run505.jld2
Instance 1505 has no congestion
features_wh5_pass0_instance453_run506.jld2
Instance 1506 has no congestion
features_wh5_pass0_instance454_run507.jld2
Instance 1507 has no congestion
features_wh5_pass0_instance454_run508.jld2
Instance 1508 has no congestion
features_wh5_pass0_instance455_run509.jld2
Instance 1509 has no congestion
features_wh5_pass0_instance455_run510.jld2
Instance 1510 has no congestion
features_wh5_pass0_instance456_run511.jld2
Instance 1511 has no congestion
features_wh5_pass0_instance456_run512.jld2
Instance 1512 has no congestion
features_wh5_pass0_instance457_run513.jld2
Instance 1513 has no congestion
features_wh5_pass0_instance457_run514.jld2
Instance 1514 has no congestion
features_wh5_pass0_instance458_run515.jld2
Instance 1515 has no congestion
features_wh5_pass0_instance458_run516.jld2
Instance 1516 has no congestion
features_wh5_pass0_instance459_run517.jld2
Instance 1517 has no congestion
features_wh5_pass0_instance459_run518.jld2
Instance 1518 has no congestion
features_wh5_pass0_instance460_run519.jld2
Instance 1519 has no congestion
features_wh5_pass0_instance460_run520.jld2
Instance 1520 has no congestion
features_wh5_pass0_instance461_run521.jld2
Instance 1521 has no congestion
features_wh5_pass0_instance461_run522.jld2
Instance 1522 has no congestion
features_wh5_pass0_instance462_run523.jld2
Instance 1523 has no congestion
features_wh5_pass0_instance462_run524.jld2
Instance 1524 has no congestion
features_wh5_pass0_instance463_run525.jld2
Instance 1525 has no congestion
features_wh5_pass0_instance463_run526.jld2
Instance 1526 has no congestion
features_wh5_pass0_instance464_run527.jld2
Instance 1527 has no congestion
features_wh5_pass0_instance464_run528.jld2
Instance 1528 has no congestion
features_wh5_pass0_instance465_run529.jld2
Instance 1529 has no congestion
features_wh5_pass0_instance465_run530.jld2
Instance 1530 has no congestion
features_wh5_pass0_instance466_run531.jld2
Instance 1531 has no congestion
features_wh5_pass0_instance466_run532.jld2
Instance 1532 has no congestion
features_wh5_pass0_instance467_run533.jld2
Instance 1533 has no congestion
features_wh5_pass0_instance467_run534.jld2
Instance 1534 has no congestion
features_wh5_pass0_instance468_run535.jld2
Instance 1535 has no congestion
features_wh5_pass0_instance468_run536.jld2
Instance 1536 has no congestion
features_wh5_pass0_instance469_run537.jld2
Instance 1537 has no congestion
features_wh5_pass0_instance469_run538.jld2
Instance 1538 has no congestion
features_wh5_pass0_instance470_run539.jld2
Instance 1539 has no congestion
features_wh5_pass0_instance470_run540.jld2
Instance 1540 has no congestion
features_wh5_pass0_instance471_run541.jld2
Instance 1541 has no congestion
features_wh5_pass0_instance471_run542.jld2
Instance 1542 has no congestion
features_wh5_pass0_instance472_run543.jld2
Instance 1543 has no congestion
features_wh5_pass0_instance472_run544.jld2
Instance 1544 has no congestion
features_wh5_pass0_instance473_run545.jld2
Instance 1545 has no congestion
features_wh5_pass0_instance473_run546.jld2
Instance 1546 has no congestion
features_wh5_pass0_instance474_run547.jld2
Instance 1547 has no congestion
features_wh5_pass0_instance474_run548.jld2
Instance 1548 has no congestion
features_wh5_pass0_instance475_run549.jld2
Instance 1549 has no congestion
features_wh5_pass0_instance475_run550.jld2
Instance 1550 has no congestion
features_wh5_pass0_instance476_run551.jld2
Instance 1551 has no congestion
features_wh5_pass0_instance476_run552.jld2
Instance 1552 has no congestion
features_wh5_pass0_instance477_run553.jld2
Instance 1553 has no congestion
features_wh5_pass0_instance477_run554.jld2
Instance 1554 has no congestion
features_wh5_pass0_instance478_run555.jld2
Instance 1555 has no congestion
features_wh5_pass0_instance478_run556.jld2
Instance 1556 has no congestion
features_wh5_pass0_instance479_run557.jld2
Instance 1557 has no congestion
features_wh5_pass0_instance479_run558.jld2
Instance 1558 has no congestion
features_wh5_pass0_instance480_run559.jld2
Instance 1559 has no congestion
features_wh5_pass0_instance480_run560.jld2
Instance 1560 has no congestion
features_wh5_pass0_instance481_run561.jld2
Instance 1561 has no congestion
features_wh5_pass0_instance481_run562.jld2
Instance 1562 has no congestion
features_wh5_pass0_instance482_run563.jld2
Instance 1563 has no congestion
features_wh5_pass0_instance482_run564.jld2
Instance 1564 has no congestion
features_wh5_pass0_instance483_run565.jld2
Instance 1565 has no congestion
features_wh5_pass0_instance483_run566.jld2
Instance 1566 has no congestion
features_wh5_pass0_instance484_run567.jld2
Instance 1567 has no congestion
features_wh5_pass0_instance484_run568.jld2
Instance 1568 has no congestion
features_wh5_pass0_instance485_run569.jld2
Instance 1569 has no congestion
features_wh5_pass0_instance485_run570.jld2
Instance 1570 has no congestion
features_wh5_pass0_instance486_run571.jld2
Instance 1571 has no congestion
features_wh5_pass0_instance486_run572.jld2
Instance 1572 has no congestion
features_wh5_pass0_instance487_run573.jld2
Instance 1573 has no congestion
features_wh5_pass0_instance487_run574.jld2
Instance 1574 has no congestion
features_wh5_pass0_instance488_run575.jld2
Instance 1575 has no congestion
features_wh5_pass0_instance488_run576.jld2
Instance 1576 has no congestion
features_wh5_pass0_instance489_run577.jld2
Instance 1577 has no congestion
features_wh5_pass0_instance489_run578.jld2
Instance 1578 has no congestion
features_wh5_pass0_instance490_run579.jld2
Instance 1579 has no congestion
features_wh5_pass0_instance490_run580.jld2
Instance 1580 has no congestion
features_wh5_pass0_instance491_run581.jld2
Instance 1581 has no congestion
features_wh5_pass0_instance491_run582.jld2
Instance 1582 has no congestion
features_wh5_pass0_instance492_run583.jld2
Instance 1583 has no congestion
features_wh5_pass0_instance492_run584.jld2
Instance 1584 has no congestion
features_wh5_pass0_instance493_run585.jld2
Instance 1585 has no congestion
features_wh5_pass0_instance493_run586.jld2
Instance 1586 has no congestion
features_wh5_pass0_instance494_run587.jld2
Instance 1587 has no congestion
features_wh5_pass0_instance494_run588.jld2
Instance 1588 has no congestion
features_wh5_pass0_instance495_run589.jld2
Instance 1589 has no congestion
features_wh5_pass0_instance495_run590.jld2
Instance 1590 has no congestion
features_wh5_pass0_instance496_run591.jld2
Instance 1591 has no congestion
features_wh5_pass0_instance496_run592.jld2
Instance 1592 has no congestion
features_wh5_pass0_instance497_run593.jld2
Instance 1593 has no congestion
features_wh5_pass0_instance497_run594.jld2
Instance 1594 has no congestion
features_wh5_pass0_instance498_run595.jld2
Instance 1595 has no congestion
features_wh5_pass0_instance498_run596.jld2
Instance 1596 has no congestion
features_wh5_pass0_instance499_run597.jld2
Instance 1597 has no congestion
features_wh5_pass0_instance499_run598.jld2
Instance 1598 has no congestion
features_wh5_pass0_instance500_run599.jld2
Instance 1599 has no congestion
features_wh5_pass0_instance500_run600.jld2
Instance 1600 has no congestion
------------------------------------------
wt_queuecong = 0.0
wt_avglocalcong = 0.0
wt_maxlocalcong = 0.0
wt_avghyperlocalcong = 0.0
wt_maxhyperlocalcong = 0.0
w_centrality = 0.33760944130522635
t_horizonrelativetime = 0.0
t_timeofday = 0.0
------------------------------------------
mp_itemoverlap = 1.7977945884485935
mp_itemoverlappct = 0.0
mp_overlapitemavginv = -0.08507631531435086
mp_overlapitemavgaltpods = 0.0
m_ordersize = -0.300213114159351
m_oneitemflag = 0.0
p_avgdisttostations = 0.01600246278647136
p_pctusefulitems = 0.0
------------------------------------------
pw_distance = 0.0
pw_xsteps = -0.012786495007596757
pw_ysteps = -0.012280841508055132
p_avgdisttostations = 0.0
p_pctusefulitems = 0.0
w_centrality = 0.0
------------------------------------------
pwt_existingcong = 0.0
p_avgdisttostations = 0.0
p_pctusefulitems = 0.8856646348314561
w_centrality = 0.0
t_horizonrelativetime = 0.0
t_timeofday = 0.0
------------------------------------------
beta_m = 0.0
beta_p = 0.0
beta_w = -14.098389042648321
beta_t = -1.9817056649106453
------------------------------------------
Training mean absolute error = 3.7209462612691904
Training mean squared error = 21.72936087518581
Training R_squared = 0.8664136087603368
------------------------------------------
wt_queuecong = -10000.0
wt_avglocalcong = -10000.0
wt_maxlocalcong = 0.0
wt_avghyperlocalcong = -10000.0
wt_maxhyperlocalcong = 0.0
w_centrality = 0.33760944130522635
t_horizonrelativetime = 0.0
t_timeofday = 0.0
------------------------------------------
mp_itemoverlap = 1.7977945884485935
mp_itemoverlappct = 0.0
mp_overlapitemavginv = -0.08507631531435086
mp_overlapitemavgaltpods = 0.0
m_ordersize = -0.300213114159351
m_oneitemflag = 0.0
p_avgdisttostations = 0.01600246278647136
p_pctusefulitems = 0.0
------------------------------------------
pw_distance = 0.0
pw_xsteps = -0.012786495007596757
pw_ysteps = -0.012280841508055132
p_avgdisttostations = 0.0
p_pctusefulitems = 0.0
w_centrality = 0.0
------------------------------------------
pwt_existingcong = 0.0
p_avgdisttostations = 0.0
p_pctusefulitems = 0.8856646348314561
w_centrality = 0.0
t_horizonrelativetime = 0.0
t_timeofday = 0.0
------------------------------------------
beta_m = 0.0
beta_p = 0.0
beta_w = -14.098389042648321
beta_t = -1.9817056649106453
------------------------------------------
Training mean absolute error = 3.7209462612691904
Training mean squared error = 21.72936087518581
Training R_squared = 0.8664136087603368
-------------------------------------------------------------------------------------
TEST
-------------------------------------------------------------------------------------
savemodelfilename_nowt = 
Dict{String,AbstractArray{Float64,1}}("beta_pwt" => 1-dimensional DenseAxisArray{Float64,1,...} with index sets:
    Dimension 1, [22, 4, 5, 1, 2, 3]
And data, a 6-element Array{Float64,1}:
 0.0
 0.0
 0.8856646348314561
 0.0
 0.0
 0.0,"shifts" => [0.0, 0.0, -14.098389042648321, -1.9817056649106453],"beta_mp" => 1-dimensional DenseAxisArray{Float64,1,...} with index sets:
    Dimension 1, [15, 16, 17, 18, 6, 7, 4, 5]
And data, a 8-element Array{Float64,1}:
  1.7977945884485935
  0.0
 -0.08507631531435086
  0.0
 -0.300213114159351
  0.0
  0.01600246278647136
  0.0,"beta_wt" => 1-dimensional DenseAxisArray{Float64,1,...} with index sets:
    Dimension 1, [10, 11, 12, 13, 14, 1, 2, 3]
And data, a 8-element Array{Float64,1}:
 0.0
 0.0
 0.0
 0.0
 0.0
 0.33760944130522635
 0.0
 0.0,"beta_pw" => 1-dimensional DenseAxisArray{Float64,1,...} with index sets:
    Dimension 1, [19, 20, 21, 4, 5, 1]
And data, a 6-element Array{Float64,1}:
  0.0
 -0.012786495007596757
 -0.012280841508055132
  0.0
  0.0
  0.0)
savemodelfilename_full = 
Dict{String,AbstractArray{Float64,1}}("beta_pwt" => 1-dimensional DenseAxisArray{Float64,1,...} with index sets:
    Dimension 1, [22, 4, 5, 1, 2, 3]
And data, a 6-element Array{Float64,1}:
 0.0
 0.0
 0.8856646348314561
 0.0
 0.0
 0.0,"shifts" => [0.0, 0.0, -14.098389042648321, -1.9817056649106453],"beta_mp" => 1-dimensional DenseAxisArray{Float64,1,...} with index sets:
    Dimension 1, [15, 16, 17, 18, 6, 7, 4, 5]
And data, a 8-element Array{Float64,1}:
  1.7977945884485935
  0.0
 -0.08507631531435086
  0.0
 -0.300213114159351
  0.0
  0.01600246278647136
  0.0,"beta_wt" => 1-dimensional DenseAxisArray{Float64,1,...} with index sets:
    Dimension 1, [10, 11, 12, 13, 14, 1, 2, 3]
And data, a 8-element Array{Float64,1}:
 0.0
 0.0
 0.0
 0.0
 0.0
 0.33760944130522635
 0.0
 0.0,"beta_pw" => 1-dimensional DenseAxisArray{Float64,1,...} with index sets:
    Dimension 1, [19, 20, 21, 4, 5, 1]
And data, a 6-element Array{Float64,1}:
  0.0
 -0.012786495007596757
 -0.012280841508055132
  0.0
  0.0
  0.0)
Full ML model saved
